Tried aggregator 1 time.
MIP Presolve eliminated 245 rows and 178 columns.
MIP Presolve modified 6594 coefficients.
Reduced MIP has 282 rows, 272 columns, and 6874 nonzeros.
Reduced MIP has 272 binaries, 0 generals, 0 SOSs, and 0 indicators.
Presolve time = 0,03 sec. (25,14 ticks)
Found incumbent of value 50,000000 after 0,05 sec. (34,96 ticks)
Probing time = 0,00 sec. (3,37 ticks)
Tried aggregator 1 time.
MIP Presolve eliminated 2 rows and 0 columns.
MIP Presolve modified 73 coefficients.
Reduced MIP has 280 rows, 272 columns, and 6850 nonzeros.
Reduced MIP has 272 binaries, 0 generals, 0 SOSs, and 0 indicators.
Presolve time = 0,01 sec. (8,09 ticks)
Probing time = 0,00 sec. (3,37 ticks)
Clique table members: 2038.
MIP emphasis: balance optimality and feasibility.
MIP search method: dynamic search.
Parallel mode: deterministic, using up to 8 threads.
Root relaxation solution time = 0,00 sec. (0,84 ticks)

        Nodes                                         Cuts/
   Node  Left     Objective  IInf  Best Integer    Best Bound    ItCnt     Gap

*     0+    0                           50,0000        0,0000           100,00%
*     0+    0                           31,0000        0,0000           100,00%
      0     0       28,8333     8       31,0000       28,8333        9    6,99%
      0     0       30,0000    10       31,0000      Cuts: 41       17    3,23%
      0     0        cutoff             31,0000                     17    0,00%
Elapsed time = 0,17 sec. (57,13 ticks, tree = 0,01 MB, solutions = 2)

GUB cover cuts applied:  5
Clique cuts applied:  6
Cover cuts applied:  1
Implied bound cuts applied:  2
Flow cuts applied:  2
Zero-half cuts applied:  5
Gomory fractional cuts applied:  3

Root node processing (before b&c):
  Real time             =    0,17 sec. (57,17 ticks)
Parallel b&c, 8 threads:
  Real time             =    0,00 sec. (0,00 ticks)
  Sync time (average)   =    0,00 sec.
  Wait time (average)   =    0,00 sec.
                          ------------
Total (root+branch&cut) =    0,17 sec. (57,17 ticks)

